<?xml version = "1.0" encoding="UTF-8" standalone="yes"?>
<CPLEXSolution version="1.2">
 <header
   problemName=""
   solutionName="p0"
   solutionIndex="-1"
   objectiveValue="29"
   solutionTypeValue="3"
   solutionTypeString="primal"
   solutionStatusValue="127"
   solutionStatusString="integer feasible solution"
   solutionMethodString="mip"
   primalFeasible="0"
   dualFeasible="0"
   writeLevel="1"/>
 <quality
   epInt="1.0000000000000001e-05"
   epRHS="9.9999999999999995e-07"
   maxIntInfeas="0"
   maxPrimalInfeas="1.4210854715202004e-14"
   maxX="29"
   maxSlack="60"/>
 <linearConstraints>
  <constraint index="0" slack="-7"/>
  <constraint index="1" slack="0"/>
  <constraint index="2" slack="-1.0658141036401503e-14"/>
  <constraint index="3" slack="0"/>
  <constraint index="4" slack="0"/>
  <constraint index="5" slack="0"/>
  <constraint index="6" slack="-9"/>
  <constraint index="7" slack="0"/>
  <constraint index="8" slack="-52.999999999999986"/>
  <constraint index="9" slack="-7.0000000000000142"/>
  <constraint index="10" slack="-59"/>
  <constraint index="11" slack="-1"/>
  <constraint index="12" slack="-43"/>
  <constraint index="13" slack="-12"/>
  <constraint index="14" slack="-1.0000000000000107"/>
  <constraint index="15" slack="-54.999999999999986"/>
  <constraint index="16" slack="-51.000000000000014"/>
  <constraint index="17" slack="1.4210854715202004e-14"/>
  <constraint index="18" slack="-45"/>
  <constraint index="19" slack="-6"/>
  <constraint index="20" slack="0"/>
  <constraint index="21" slack="-55"/>
  <constraint index="22" slack="-55"/>
  <constraint index="23" slack="0"/>
  <constraint index="24" slack="-45"/>
  <constraint index="25" slack="-12"/>
  <constraint index="26" slack="-47"/>
  <constraint index="27" slack="-3"/>
  <constraint index="28" slack="-37"/>
  <constraint index="29" slack="-15"/>
  <constraint index="30" slack="-48"/>
  <constraint index="31" slack="-4"/>
  <constraint index="32" slack="-53.999999999999986"/>
  <constraint index="33" slack="-1.4210854715202004e-14"/>
  <constraint index="34" slack="0"/>
  <constraint index="35" slack="-60"/>
  <constraint index="36" slack="-7"/>
  <constraint index="37" slack="-53"/>
  <constraint index="38" slack="-2.0000000000000107"/>
  <constraint index="39" slack="-49.999999999999986"/>
  <constraint index="40" slack="-9.0000000000000107"/>
  <constraint index="41" slack="-42.999999999999986"/>
  <constraint index="42" slack="-3"/>
  <constraint index="43" slack="-55"/>
  <constraint index="44" slack="0"/>
  <constraint index="45" slack="-2.0000000000000107"/>
  <constraint index="46" slack="-1"/>
  <constraint index="47" slack="-2"/>
  <constraint index="48" slack="0"/>
  <constraint index="49" slack="0"/>
  <constraint index="50" slack="0"/>
  <constraint index="51" slack="-4"/>
  <constraint index="52" slack="-3"/>
  <constraint index="53" slack="-3.0000000000000107"/>
  <constraint index="54" slack="-3"/>
  <constraint index="55" slack="0"/>
  <constraint index="56" slack="-7.0000000000000107"/>
  <constraint index="57" slack="0"/>
  <constraint index="58" slack="-1"/>
  <constraint index="59" slack="0"/>
  <constraint index="60" slack="-2"/>
  <constraint index="61" slack="-3.0000000000000107"/>
  <constraint index="62" slack="-12"/>
  <constraint index="63" slack="0"/>
  <constraint index="64" slack="0"/>
  <constraint index="65" slack="-8.0000000000000107"/>
  <constraint index="66" slack="-8"/>
  <constraint index="67" slack="-2"/>
  <constraint index="68" slack="0"/>
  <constraint index="69" slack="0"/>
  <constraint index="70" slack="-7"/>
  <constraint index="71" slack="-8"/>
  <constraint index="72" slack="-3"/>
  <constraint index="73" slack="0"/>
  <constraint index="74" slack="-19"/>
  <constraint index="75" slack="-8"/>
  <constraint index="76" slack="-15"/>
  <constraint index="77" slack="0"/>
  <constraint index="78" slack="-6"/>
  <constraint index="79" slack="-11"/>
  <constraint index="80" slack="-7.0000000000000107"/>
  <constraint index="81" slack="-11"/>
  <constraint index="82" slack="-7"/>
  <constraint index="83" slack="-2"/>
  <constraint index="84" slack="-7"/>
  <constraint index="85" slack="-4.0000000000000107"/>
  <constraint index="86" slack="0"/>
  <constraint index="87" slack="-7"/>
  <constraint index="88" slack="0"/>
  <constraint index="89" slack="-9.0000000000000107"/>
  <constraint index="90" slack="0"/>
  <constraint index="91" slack="-3"/>
  <constraint index="92" slack="-13"/>
  <constraint index="93" slack="-15.999999999999989"/>
  <constraint index="94" slack="-11"/>
  <constraint index="95" slack="-22"/>
  <constraint index="96" slack="-12"/>
  <constraint index="97" slack="-6"/>
  <constraint index="98" slack="-15.999999999999989"/>
  <constraint index="99" slack="-7"/>
  <constraint index="100" slack="1.0658141036401503e-14"/>
  <constraint index="101" slack="-6"/>
  <constraint index="102" slack="-6"/>
  <constraint index="103" slack="-6"/>
  <constraint index="104" slack="-18"/>
  <constraint index="105" slack="-16"/>
  <constraint index="106" slack="-10"/>
  <constraint index="107" slack="-10"/>
  <constraint index="108" slack="-12"/>
  <constraint index="109" slack="0"/>
  <constraint index="110" slack="-13"/>
  <constraint index="111" slack="-10"/>
  <constraint index="112" slack="-15"/>
  <constraint index="113" slack="0"/>
  <constraint index="114" slack="-4"/>
  <constraint index="115" slack="0"/>
  <constraint index="116" slack="-6"/>
  <constraint index="117" slack="-5.9999999999999893"/>
  <constraint index="118" slack="-16"/>
  <constraint index="119" slack="-16"/>
  <constraint index="120" slack="-16"/>
  <constraint index="121" slack="-23"/>
  <constraint index="122" slack="-5.9999999999999893"/>
  <constraint index="123" slack="-8"/>
  <constraint index="124" slack="-5.9999999999999893"/>
  <constraint index="125" slack="-15"/>
  <constraint index="126" slack="-18"/>
  <constraint index="127" slack="-13"/>
  <constraint index="128" slack="-23"/>
  <constraint index="129" slack="-5.9999999999999893"/>
  <constraint index="130" slack="-10"/>
  <constraint index="131" slack="0"/>
  <constraint index="132" slack="-16"/>
  <constraint index="133" slack="-6"/>
  <constraint index="134" slack="-10"/>
  <constraint index="135" slack="0"/>
  <constraint index="136" slack="-16"/>
  <constraint index="137" slack="-5.9999999999999893"/>
  <constraint index="138" slack="-10"/>
  <constraint index="139" slack="-9"/>
 </linearConstraints>
 <variables>
  <variable name="x_0_0" index="0" value="0"/>
  <variable name="x_0_1" index="1" value="8.0000000000000107"/>
  <variable name="x_0_2" index="2" value="2"/>
  <variable name="x_0_3" index="3" value="13"/>
  <variable name="x_1_0" index="4" value="8"/>
  <variable name="x_1_1" index="5" value="0"/>
  <variable name="x_1_2" index="6" value="11"/>
  <variable name="x_1_3" index="7" value="23"/>
  <variable name="x_2_0" index="8" value="11"/>
  <variable name="x_2_1" index="9" value="13.000000000000011"/>
  <variable name="x_2_2" index="10" value="7"/>
  <variable name="x_2_3" index="11" value="0"/>
  <variable name="z_0_0_1" index="12" value="1"/>
  <variable name="z_0_0_2" index="13" value="1"/>
  <variable name="z_0_0_3" index="14" value="1"/>
  <variable name="z_0_1_2" index="15" value="0"/>
  <variable name="z_0_1_3" index="16" value="1"/>
  <variable name="z_0_2_3" index="17" value="1"/>
  <variable name="z_1_0_1" index="18" value="0"/>
  <variable name="z_1_0_2" index="19" value="1"/>
  <variable name="z_1_0_3" index="20" value="1"/>
  <variable name="z_1_1_2" index="21" value="1"/>
  <variable name="z_1_1_3" index="22" value="1"/>
  <variable name="z_1_2_3" index="23" value="1"/>
  <variable name="z_2_0_1" index="24" value="1"/>
  <variable name="z_2_0_2" index="25" value="0"/>
  <variable name="z_2_0_3" index="26" value="0"/>
  <variable name="z_2_1_2" index="27" value="0"/>
  <variable name="z_2_1_3" index="28" value="0"/>
  <variable name="z_2_2_3" index="29" value="0"/>
  <variable name="cmax" index="30" value="29"/>
 </variables>
</CPLEXSolution>
